
Log started (V11.0.0) Mon May 19 17:56:53 2008

Tried aggregator 1 time.
Reduced MIP has 550 rows, 25001 columns, and 50050 nonzeros.
Presolve time =    0.19 sec.
Clique table members: 500.
MIP emphasis: balance optimality and feasibility.
MIP search method: dynamic search.
Parallel mode: none, using 1 thread.
Root relaxation solution time =    2.22 sec.

        Nodes                                         Cuts/
   Node  Left     Objective  IInf  Best Integer     Best Node    ItCnt     Gap

*     0+    0                        54940.0000     1001.2400     1015   98.18%
*     0+    0                         1005.0000     1001.2400     1015    0.37%
      0     0     1002.0000    63     1005.0000      Fract: 6     1025    0.30%
      0     0     1002.0000    66     1005.0000     Covers: 1     1043    0.30%
      0     0     1002.0000    79     1005.0000     Covers: 2     1053    0.30%
      0     2     1002.0000    79     1005.0000     1002.0000     1053    0.30%
    100   101     1004.0000    58     1005.0000     1002.0000     3496    0.30%
*   200+   31                         1004.0000     1002.0000     7564    0.20%
    200    30     1004.0000    75     1004.0000     1002.0000     7564    0.20%
    300    72     1002.0000    52     1004.0000     1002.0000     9304    0.20%
    400   123     1003.0000    66     1004.0000     1002.0000    15752    0.20%
    500   192    infeasible           1004.0000     1002.0000    24017    0.20%
    600   206        cutoff           1004.0000     1002.0000    34687    0.20%
*   613+  161                         1003.0000     1002.0000    35679    0.10%
    700   152    infeasible           1003.0000     1002.0000    56671    0.10%
    800   183     1002.0000    63     1003.0000     1002.0000    94938    0.10%
    900   211    infeasible           1003.0000     1002.0000   148517    0.10%
   1000   245     1002.0000    83     1003.0000     1002.0000   195169    0.10%
Elapsed time = 240.78 sec. (tree size =  3.12 MB, solutions = 4)
   1100   240    infeasible           1003.0000     1002.0000   272589    0.10%
   1200   140    infeasible           1003.0000     1002.0000   471414    0.10%
   1300    84     1002.0000    52     1003.0000     1002.0000   636720    0.10%
   1400   168     1002.0000    61     1003.0000     1002.0000   650488    0.10%
   1500   246     1002.0000    81     1003.0000     1002.0000   673108    0.10%
   1600   324    infeasible           1003.0000     1002.0000   695851    0.10%
   1700   414     1002.0000    82     1003.0000     1002.0000   707457    0.10%
   1800   487     1002.0000    76     1003.0000     1002.0000   717350    0.10%
   1900   587     1002.0000    72     1003.0000     1002.0000   719207    0.10%
   2000   670     1002.0000    89     1003.0000     1002.0000   725558    0.10%
Elapsed time = 603.42 sec. (tree size =  8.95 MB, solutions = 4)
   2100   580    infeasible           1003.0000     1002.0000   895592    0.10%
   2200   480    infeasible           1003.0000     1002.0000  1060117    0.10%
   2300   380    infeasible           1003.0000     1002.0000  1255421    0.10%
   2400   280    infeasible           1003.0000     1002.0000  1446842    0.10%
   2500   180    infeasible           1003.0000     1002.0000  1663531    0.10%
   2600    80    infeasible           1003.0000     1002.0000  1891847    0.10%
   2700    27     1002.0000    55     1003.0000     1002.0000  2052629    0.10%
   2800   111    infeasible           1003.0000     1002.0000  2068777    0.10%
   2900   191     1002.0000    86     1003.0000     1002.0000  2087479    0.10%
   3000   263     1002.0000    79     1003.0000     1002.0000  2114390    0.10%
Elapsed time = 1254.47 sec. (tree size =  3.67 MB, solutions = 4)
   3100   337     1002.0000    70     1003.0000     1002.0000  2138852    0.10%
   3200   389     1002.0000    67     1003.0000     1002.0000  2185598    0.10%
   3300   421     1002.0000    82     1003.0000     1002.0000  2244458    0.10%
   3400   493     1002.0000    81     1003.0000     1002.0000  2271979    0.10%
   3500   589     1002.0000    73     1003.0000     1002.0000  2274652    0.10%
   3600   683     1002.0000    85     1003.0000     1002.0000  2278169    0.10%
   3700   770     1002.0000    82     1003.0000     1002.0000  2287739    0.10%
   3800   856     1002.0000    88     1003.0000     1002.0000  2304002    0.10%
   3900   946     1002.0000    57     1003.0000     1002.0000  2320192    0.10%
   4000  1026     1002.0000    80     1003.0000     1002.0000  2342359    0.10%
Elapsed time = 1530.67 sec. (tree size = 14.63 MB, solutions = 4)
   4100  1114    infeasible           1003.0000     1002.0000  2356194    0.10%
   4200  1199     1002.0000    77     1003.0000     1002.0000  2372623    0.10%
   4300  1151    infeasible           1003.0000     1002.0000  2530257    0.10%
   4400  1051    infeasible           1003.0000     1002.0000  2761545    0.10%
   4500   951    infeasible           1003.0000     1002.0000  3016521    0.10%
   4600   851    infeasible           1003.0000     1002.0000  3266408    0.10%
   4700   751    infeasible           1003.0000     1002.0000  3548114    0.10%
   4800   651    infeasible           1003.0000     1002.0000  3816994    0.10%
   4900   551    infeasible           1003.0000     1002.0000  4125127    0.10%
   5000   451    infeasible           1003.0000     1002.0000  4386074    0.10%
Elapsed time = 2408.67 sec. (tree size =  6.51 MB, solutions = 4)
   5100   385     1002.0000    76     1003.0000     1002.0000  4644152    0.10%
   5200   424     1002.0000    82     1003.0000     1002.0000  4647983    0.10%
   5300   524     1002.0000    86     1003.0000     1002.0000  4650579    0.10%
   5400   621     1002.0000    74     1003.0000     1002.0000  4653319    0.10%
   5500   699     1002.0000    71     1003.0000     1002.0000  4665590    0.10%
   5600   779     1002.0000    76     1003.0000     1002.0000  4683065    0.10%
   5700   843     1002.0000    76     1003.0000     1002.0000  4708640    0.10%
   5800   905    infeasible           1003.0000     1002.0000  4741501    0.10%
   5900   904    infeasible           1003.0000     1002.0000  4862564    0.10%
   6000   804    infeasible           1003.0000     1002.0000  5151417    0.10%
Elapsed time = 2885.34 sec. (tree size = 11.94 MB, solutions = 4)
   6100   704    infeasible           1003.0000     1002.0000  5428568    0.10%
   6200   712     1002.0000    63     1003.0000     1002.0000  5557648    0.10%
   6300   812     1002.0000    53     1003.0000     1002.0000  5564618    0.10%
   6400   910     1002.0000    60     1003.0000     1002.0000  5579053    0.10%
   6500   981    infeasible           1003.0000     1002.0000  5615450    0.10%
   6600   881    infeasible           1003.0000     1002.0000  5830041    0.10%
   6700   781    infeasible           1003.0000     1002.0000  6035728    0.10%
   6800   845     1002.0000    60     1003.0000     1002.0000  6081400    0.10%
   6900   945     1002.0000    49     1003.0000     1002.0000  6090796    0.10%
   7000  1045     1002.0000    62     1003.0000     1002.0000  6097397    0.10%
Elapsed time = 3445.00 sec. (tree size = 15.79 MB, solutions = 4)
   7100  1145     1002.0000    71     1003.0000     1002.0000  6111583    0.10%
   7200  1231    infeasible           1003.0000     1002.0000  6133747    0.10%
   7300  1313     1002.0000    69     1003.0000     1002.0000  6161416    0.10%
   7400  1403     1002.0000    78     1003.0000     1002.0000  6174955    0.10%
   7500  1493     1002.0000    65     1003.0000     1002.0000  6186706    0.10%
   7600  1558     1002.0000    73     1003.0000     1002.0000  6211586    0.10%
   7700  1652    infeasible           1003.0000     1002.0000  6214545    0.10%
   7800  1740     1002.0000    67     1003.0000     1002.0000  6220818    0.10%
   7900  1836     1002.0000    90     1003.0000     1002.0000  6224032    0.10%
   8000  1914     1002.0000    84     1003.0000     1002.0000  6238122    0.10%
Elapsed time = 3678.72 sec. (tree size = 29.97 MB, solutions = 4)
   8100  2002     1002.0000    62     1003.0000     1002.0000  6249297    0.10%
   8200  2101     1002.0000    88     1003.0000     1002.0000  6254568    0.10%
   8300  2189     1002.0000    74     1003.0000     1002.0000  6261741    0.10%
   8400  2277    infeasible           1003.0000     1002.0000  6268385    0.10%
   8500  2352     1002.0000    38     1003.0000     1002.0000  6273611    0.10%
   8600  2452     1002.0000    43     1003.0000     1002.0000  6274833    0.10%
   8700  2552     1002.0000    54     1003.0000     1002.0000  6276245    0.10%
   8800  2652     1002.0000    67     1003.0000     1002.0000  6278419    0.10%
   8900  2752     1002.0000    71     1003.0000     1002.0000  6281926    0.10%
   9000  2852     1002.0000    68     1003.0000     1002.0000  6285954    0.10%
Elapsed time = 3817.44 sec. (tree size = 46.41 MB, solutions = 4)
   9100  2952     1002.0000    70     1003.0000     1002.0000  6290380    0.10%
   9200  3052     1002.0000    84     1003.0000     1002.0000  6294485    0.10%
   9300  3152     1002.0000    63     1003.0000     1002.0000  6300600    0.10%
   9400  3252     1002.0000    75     1003.0000     1002.0000  6306888    0.10%
   9500  3352     1002.0000    61     1003.0000     1002.0000  6311592    0.10%
   9600  3452     1002.0000    70     1003.0000     1002.0000  6318103    0.10%
   9700  3552     1002.0000    70     1003.0000     1002.0000  6326054    0.10%
   9800  3651     1002.0000    97     1003.0000     1002.0000  6334644    0.10%
   9900  3737     1002.0000    75     1003.0000     1002.0000  6350168    0.10%
  10000  3805     1002.0000    71     1003.0000     1002.0000  6355928    0.10%
Elapsed time = 4029.95 sec. (tree size = 64.33 MB, solutions = 4)
  10100  3738    infeasible           1003.0000     1002.0000  6531753    0.10%
  10200  3756     1002.0000    87     1003.0000     1002.0000  6617448    0.10%
  10300  3853     1002.0000    78     1003.0000     1002.0000  6621490    0.10%
  10400  3937     1002.0000    73     1003.0000     1002.0000  6632846    0.10%
  10500  4029     1002.0000    80     1003.0000     1002.0000  6637658    0.10%
  10600  4099    infeasible           1003.0000     1002.0000  6660693    0.10%
  10700  4165     1002.0000    68     1003.0000     1002.0000  6717099    0.10%
  10800  4263     1002.0000    54     1003.0000     1002.0000  6727354    0.10%
  10900  4329     1002.0000    89     1003.0000     1002.0000  6762921    0.10%
  11000  4419     1002.0000    52     1003.0000     1002.0000  6782959    0.10%
Elapsed time = 4337.92 sec. (tree size = 74.86 MB, solutions = 4)
  11100  4499     1002.0000    60     1003.0000     1002.0000  6809535    0.10%
  11200  4587     1002.0000    64     1003.0000     1002.0000  6825622    0.10%
  11300  4661     1002.0000    71     1003.0000     1002.0000  6863238    0.10%
  11400  4759     1002.0000    50     1003.0000     1002.0000  6871810    0.10%
  11500  4857     1002.0000   100     1003.0000     1002.0000  6880213    0.10%
  11600  4943     1002.0000    89     1003.0000     1002.0000  6899411    0.10%
  11700  5025     1002.0000    63     1003.0000     1002.0000  6917630    0.10%
  11800  5113     1002.0000   103     1003.0000     1002.0000  6932364    0.10%
  11900  5178     1002.0000    76     1003.0000     1002.0000  6973902    0.10%
  12000  5268     1002.0000    89     1003.0000     1002.0000  6980224    0.10%
Elapsed time = 4561.95 sec. (tree size = 89.90 MB, solutions = 4)
  12100  5314     1002.0000   118     1003.0000     1002.0000  7062972    0.10%
  12200  5412     1002.0000    83     1003.0000     1002.0000  7068178    0.10%
  12300  5505     1002.0000    87     1003.0000     1002.0000  7074401    0.10%
  12400  5579     1002.0000    89     1003.0000     1002.0000  7084976    0.10%
  12500  5665     1002.0000   101     1003.0000     1002.0000  7097888    0.10%
  12600  5742     1002.0000    93     1003.0000     1002.0000  7129950    0.10%
  12700  5814    infeasible           1003.0000     1002.0000  7164174    0.10%
  12800  5896     1002.0000    83     1003.0000     1002.0000  7177449    0.10%
  12900  5938     1002.0000    94     1003.0000     1002.0000  7221433    0.10%
  13000  5978    infeasible           1003.0000     1002.0000  7304591    0.10%
Elapsed time = 4847.55 sec. (tree size = 102.95 MB, solutions = 4)
  13100  6042     1002.0000    79     1003.0000     1002.0000  7358768    0.10%
  13200  5998    infeasible           1003.0000     1002.0000  7599840    0.10%
  13300  5898    infeasible           1003.0000     1002.0000  7973764    0.10%
  13400  5798    infeasible           1003.0000     1002.0000  8416935    0.10%
  13500  5698    infeasible           1003.0000     1002.0000  8864197    0.10%
  13600  5598    infeasible           1003.0000     1002.0000  9333744    0.10%
  13700  5498    infeasible           1003.0000     1002.0000  9779755    0.10%
  13800  5398    infeasible           1003.0000     1002.0000 10229918    0.10%
  13900  5298    infeasible           1003.0000     1002.0000 10711922    0.10%
  14000  5198    infeasible           1003.0000     1002.0000 11172515    0.10%
Elapsed time = 6763.30 sec. (tree size = 89.35 MB, solutions = 4)
  14100  5098    infeasible           1003.0000     1002.0000 11620954    0.10%

Cover cuts applied:  572
Gomory fractional cuts applied:  6

Solution pool: 4 solutions saved.

MIP - Time limit exceeded, integer feasible:  Objective = 1.0030000000e+003
Current MIP best bound = 1.0020000000e+003 (gap = 1, 0.10%)
Solution time = 7200.02 sec.  Iterations = 12076134  Nodes = 14196 (5003)


Incumbent solution
Variable Name           Solution Value
Cmax                       1003.000000
X_1_7                         1.000000
X_2_41                        1.000000
X_3_8                         1.000000
X_4_16                        1.000000
X_5_38                        1.000000
X_6_5                         1.000000
X_7_4                         1.000000
X_8_43                        1.000000
X_9_3                         1.000000
X_10_9                        1.000000
X_11_4                        1.000000
X_12_20                       1.000000
X_13_14                       1.000000
X_14_1                        1.000000
X_15_15                       1.000000
X_16_24                       1.000000
X_17_30                       1.000000
X_18_10                       1.000000
X_19_23                       1.000000
X_20_23                       1.000000
X_21_25                       1.000000
X_22_40                       1.000000
X_23_35                       1.000000
X_24_7                        1.000000
X_25_46                       1.000000
X_26_27                       1.000000
X_27_50                       1.000000
X_28_43                       1.000000
X_29_37                       1.000000
X_30_42                       1.000000
X_31_22                       1.000000
X_32_41                       1.000000
X_33_9                        1.000000
X_34_49                       1.000000
X_35_11                       1.000000
X_36_39                       1.000000
X_37_44                       1.000000
X_38_43                       1.000000
X_39_50                       1.000000
X_40_33                       1.000000
X_41_44                       1.000000
X_42_9                        1.000000
X_43_24                       1.000000
X_44_25                       1.000000
X_45_42                       1.000000
X_46_36                       1.000000
X_47_17                       1.000000
X_48_48                       1.000000
X_49_16                       1.000000
X_50_37                       1.000000
X_51_26                       1.000000
X_52_1                        1.000000
X_53_21                       1.000000
X_54_30                       1.000000
X_55_37                       1.000000
X_56_17                       1.000000
X_57_23                       1.000000
X_58_14                       1.000000
X_59_2                        1.000000
X_60_5                        1.000000
X_61_46                       1.000000
X_62_23                       1.000000
X_63_33                       1.000000
X_64_17                       1.000000
X_65_35                       1.000000
X_66_45                       1.000000
X_67_50                       1.000000
X_68_36                       1.000000
X_69_7                        1.000000
X_70_24                       1.000000
X_71_36                       1.000000
X_72_38                       1.000000
X_73_9                        1.000000
X_74_21                       1.000000
X_75_15                       1.000000
X_76_19                       1.000000
X_77_6                        1.000000
X_78_24                       1.000000
X_79_24                       1.000000
X_80_29                       1.000000
X_81_38                       1.000000
X_82_26                       1.000000
X_83_11                       1.000000
X_84_47                       1.000000
X_85_44                       1.000000
X_86_48                       1.000000
X_87_31                       1.000000
X_88_42                       1.000000
X_89_3                        1.000000
X_90_18                       1.000000
X_91_47                       1.000000
X_92_27                       1.000000
X_93_19                       1.000000
X_94_30                       1.000000
X_95_31                       1.000000
X_96_25                       1.000000
X_97_20                       1.000000
X_98_3                        1.000000
X_99_18                       1.000000
X_100_29                      1.000000
X_101_49                      1.000000
X_102_1                       1.000000
X_103_48                      1.000000
X_104_8                       1.000000
X_105_30                      1.000000
X_106_1                       1.000000
X_107_15                      1.000000
X_108_21                      1.000000
X_109_32                      1.000000
X_110_19                      1.000000
X_111_12                      1.000000
X_112_13                      1.000000
X_113_45                      1.000000
X_114_47                      1.000000
X_115_50                      1.000000
X_116_2                       1.000000
X_117_28                      1.000000
X_118_45                      1.000000
X_119_39                      1.000000
X_120_2                       1.000000
X_121_42                      1.000000
X_122_11                      1.000000
X_123_13                      1.000000
X_124_35                      1.000000
X_125_35                      1.000000
X_126_13                      1.000000
X_127_13                      1.000000
X_128_35                      1.000000
X_129_16                      1.000000
X_130_34                      1.000000
X_131_12                      1.000000
X_132_45                      1.000000
X_133_48                      1.000000
X_134_33                      1.000000
X_135_49                      1.000000
X_136_47                      1.000000
X_137_16                      1.000000
X_138_48                      1.000000
X_139_4                       1.000000
X_140_49                      1.000000
X_141_31                      1.000000
X_142_2                       1.000000
X_143_25                      1.000000
X_144_40                      1.000000
X_145_36                      1.000000
X_146_29                      1.000000
X_147_12                      1.000000
X_148_31                      1.000000
X_149_39                      1.000000
X_150_8                       1.000000
X_151_42                      1.000000
X_152_2                       1.000000
X_153_35                      1.000000
X_154_2                       1.000000
X_155_15                      1.000000
X_156_11                      1.000000
X_157_29                      1.000000
X_158_1                       1.000000
X_159_42                      1.000000
X_160_20                      1.000000
X_161_47                      1.000000
X_162_1                       1.000000
X_163_41                      1.000000
X_164_34                      1.000000
X_165_5                       1.000000
X_166_2                       1.000000
X_167_47                      1.000000
X_168_8                       1.000000
X_169_39                      1.000000
X_170_36                      1.000000
X_171_44                      1.000000
X_172_2                       1.000000
X_173_22                      1.000000
X_174_8                       1.000000
X_175_27                      1.000000
X_176_30                      1.000000
X_177_46                      1.000000
X_178_44                      1.000000
X_179_20                      1.000000
X_180_18                      1.000000
X_181_21                      1.000000
X_182_17                      1.000000
X_183_49                      1.000000
X_184_42                      1.000000
X_185_7                       1.000000
X_186_43                      1.000000
X_187_9                       1.000000
X_188_25                      1.000000
X_189_12                      1.000000
X_190_21                      1.000000
X_191_14                      1.000000
X_192_38                      1.000000
X_193_39                      1.000000
X_194_28                      1.000000
X_195_20                      1.000000
X_196_7                       1.000000
X_197_20                      1.000000
X_198_32                      1.000000
X_199_6                       1.000000
X_200_15                      1.000000
X_201_31                      1.000000
X_202_50                      1.000000
X_203_19                      1.000000
X_204_32                      1.000000
X_205_14                      1.000000
X_206_8                       1.000000
X_207_11                      1.000000
X_208_33                      1.000000
X_209_5                       1.000000
X_210_35                      1.000000
X_211_22                      1.000000
X_212_27                      1.000000
X_213_41                      1.000000
X_214_12                      1.000000
X_215_15                      1.000000
X_216_21                      1.000000
X_217_26                      1.000000
X_218_40                      1.000000
X_219_27                      1.000000
X_220_24                      1.000000
X_221_33                      1.000000
X_222_49                      1.000000
X_223_45                      1.000000
X_224_18                      1.000000
X_225_29                      1.000000
X_226_4                       1.000000
X_227_9                       1.000000
X_228_19                      1.000000
X_229_48                      1.000000
X_230_30                      1.000000
X_231_45                      1.000000
X_232_37                      1.000000
X_233_34                      1.000000
X_234_32                      1.000000
X_235_27                      1.000000
X_236_3                       1.000000
X_237_34                      1.000000
X_238_4                       1.000000
X_239_18                      1.000000
X_240_11                      1.000000
X_241_7                       1.000000
X_242_46                      1.000000
X_243_38                      1.000000
X_244_49                      1.000000
X_245_30                      1.000000
X_246_45                      1.000000
X_247_42                      1.000000
X_248_37                      1.000000
X_249_6                       1.000000
X_250_39                      1.000000
X_251_9                       1.000000
X_252_31                      1.000000
X_253_19                      1.000000
X_254_46                      1.000000
X_255_4                       1.000000
X_256_38                      1.000000
X_257_46                      1.000000
X_258_41                      1.000000
X_259_3                       1.000000
X_260_12                      1.000000
X_261_12                      1.000000
X_262_32                      1.000000
X_263_14                      1.000000
X_264_17                      1.000000
X_265_43                      1.000000
X_266_1                       1.000000
X_267_29                      1.000000
X_268_24                      1.000000
X_269_20                      1.000000
X_270_23                      1.000000
X_271_42                      1.000000
X_272_39                      1.000000
X_273_36                      1.000000
X_274_4                       1.000000
X_275_8                       1.000000
X_276_50                      1.000000
X_277_27                      1.000000
X_278_11                      1.000000
X_279_28                      1.000000
X_280_28                      1.000000
X_281_5                       1.000000
X_282_10                      1.000000
X_283_5                       1.000000
X_284_25                      1.000000
X_285_18                      1.000000
X_286_15                      1.000000
X_287_29                      1.000000
X_288_29                      1.000000
X_289_28                      1.000000
X_290_21                      1.000000
X_291_25                      1.000000
X_292_18                      1.000000
X_293_11                      1.000000
X_294_43                      1.000000
X_295_50                      1.000000
X_296_28                      1.000000
X_297_43                      1.000000
X_298_1                       1.000000
X_299_31                      1.000000
X_300_23                      1.000000
X_301_22                      1.000000
X_302_41                      1.000000
X_303_32                      1.000000
X_304_14                      1.000000
X_305_10                      1.000000
X_306_25                      1.000000
X_307_34                      1.000000
X_308_47                      1.000000
X_309_9                       1.000000
X_310_46                      1.000000
X_311_15                      1.000000
X_312_40                      1.000000
X_313_3                       1.000000
X_314_6                       1.000000
X_315_6                       1.000000
X_316_18                      1.000000
X_317_3                       1.000000
X_318_49                      1.000000
X_319_46                      1.000000
X_320_41                      1.000000
X_321_6                       1.000000
X_322_38                      1.000000
X_323_16                      1.000000
X_324_19                      1.000000
X_325_5                       1.000000
X_326_6                       1.000000
X_327_41                      1.000000
X_328_5                       1.000000
X_329_37                      1.000000
X_330_35                      1.000000
X_331_1                       1.000000
X_332_9                       1.000000
X_333_46                      1.000000
X_334_48                      1.000000
X_335_14                      1.000000
X_336_33                      1.000000
X_337_24                      1.000000
X_338_16                      1.000000
X_339_43                      1.000000
X_340_48                      1.000000
X_341_32                      1.000000
X_342_38                      1.000000
X_343_24                      1.000000
X_344_41                      1.000000
X_345_8                       1.000000
X_346_19                      1.000000
X_347_32                      1.000000
X_348_38                      1.000000
X_349_33                      1.000000
X_350_36                      1.000000
X_351_44                      1.000000
X_352_36                      1.000000
X_353_9                       1.000000
X_354_5                       1.000000
X_355_17                      1.000000
X_356_34                      1.000000
X_357_10                      1.000000
X_358_11                      1.000000
X_359_8                       1.000000
X_360_23                      1.000000
X_361_7                       1.000000
X_362_22                      1.000000
X_363_23                      1.000000
X_364_17                      1.000000
X_365_10                      1.000000
X_366_14                      1.000000
X_367_37                      1.000000
X_368_31                      1.000000
X_369_17                      1.000000
X_370_33                      1.000000
X_371_32                      1.000000
X_372_26                      1.000000
X_373_30                      1.000000
X_374_30                      1.000000
X_375_4                       1.000000
X_376_40                      1.000000
X_377_17                      1.000000
X_378_3                       1.000000
X_379_32                      1.000000
X_380_11                      1.000000
X_381_25                      1.000000
X_382_40                      1.000000
X_383_15                      1.000000
X_384_13                      1.000000
X_385_20                      1.000000
X_386_42                      1.000000
X_387_39                      1.000000
X_388_37                      1.000000
X_389_44                      1.000000
X_390_28                      1.000000
X_391_21                      1.000000
X_392_44                      1.000000
X_393_26                      1.000000
X_394_16                      1.000000
X_395_28                      1.000000
X_396_26                      1.000000
X_397_19                      1.000000
X_398_18                      1.000000
X_399_2                       1.000000
X_400_40                      1.000000
X_401_37                      1.000000
X_402_10                      1.000000
X_403_22                      1.000000
X_404_33                      1.000000
X_405_13                      1.000000
X_406_30                      1.000000
X_407_16                      1.000000
X_408_47                      1.000000
X_409_49                      1.000000
X_410_14                      1.000000
X_411_23                      1.000000
X_412_38                      1.000000
X_413_43                      1.000000
X_414_7                       1.000000
X_415_33                      1.000000
X_416_34                      1.000000
X_417_7                       1.000000
X_418_29                      1.000000
X_419_26                      1.000000
X_420_29                      1.000000
X_421_28                      1.000000
X_422_39                      1.000000
X_423_25                      1.000000
X_424_49                      1.000000
X_425_20                      1.000000
X_426_50                      1.000000
X_427_34                      1.000000
X_428_35                      1.000000
X_429_39                      1.000000
X_430_13                      1.000000
X_431_4                       1.000000
X_432_19                      1.000000
X_433_12                      1.000000
X_434_26                      1.000000
X_435_1                       1.000000
X_436_2                       1.000000
X_437_37                      1.000000
X_438_15                      1.000000
X_439_50                      1.000000
X_440_22                      1.000000
X_441_6                       1.000000
X_442_26                      1.000000
X_443_10                      1.000000
X_444_22                      1.000000
X_445_24                      1.000000
X_446_45                      1.000000
X_447_13                      1.000000
X_448_27                      1.000000
X_449_10                      1.000000
X_450_35                      1.000000
X_451_36                      1.000000
X_452_34                      1.000000
X_453_6                       1.000000
X_454_3                       1.000000
X_455_8                       1.000000
X_456_22                      1.000000
X_457_10                      1.000000
X_458_16                      1.000000
X_459_20                      1.000000
X_460_10                      1.000000
X_461_27                      1.000000
X_462_45                      1.000000
X_463_5                       1.000000
X_464_27                      1.000000
X_465_6                       1.000000
X_466_23                      1.000000
X_467_34                      1.000000
X_468_13                      1.000000
X_469_44                      1.000000
X_470_44                      1.000000
X_471_22                      1.000000
X_472_50                      1.000000
X_473_7                       1.000000
X_474_48                      1.000000
X_475_45                      1.000000
X_476_18                      1.000000
X_477_40                      1.000000
X_478_14                      1.000000
X_479_12                      1.000000
X_480_21                      1.000000
X_481_31                      1.000000
X_482_3                       1.000000
X_483_43                      1.000000
X_484_26                      1.000000
X_485_17                      1.000000
X_486_46                      1.000000
X_487_48                      1.000000
X_488_40                      1.000000
X_489_13                      1.000000
X_490_31                      1.000000
X_491_47                      1.000000
X_492_40                      1.000000
X_493_16                      1.000000
X_494_36                      1.000000
X_495_47                      1.000000
X_496_4                       1.000000
X_497_28                      1.000000
X_498_12                      1.000000
X_499_21                      1.000000
X_500_41                      1.000000
All other variables in the range 1-25001 are 0.
